NAME : tsp225
TYPE : OP
DIMENSION : 225
COST_LIMIT : 1958
ROUTE_NODES : 111
ROUTE_SCORE : 6936
ROUTE_COST : 1957
NODE_SEQUENCE_SECTION
1
198
4
6
43
46
194
218
193
196
192
191
133
199
50
52
55
56
57
51
49
190
225
47
189
27
188
187
118
115
223
116
60
61
62
64
65
66
67
69
71
72
73
100
99
101
103
104
220
105
106
108
109
125
212
150
149
152
154
155
157
144
143
201
142
140
139
138
159
160
161
162
158
213
164
165
128
222
211
130
87
210
84
82
83
94
221
81
79
78
77
217
219
216
206
202
30
29
28
204
26
34
35
33
37
38
39
40
8
5
3
-1
DEPOT_SECTION
1
-1
EOF
